100
150
100
99
99
98
98
96
93
91
89
89
88
86
86
85
85
85
84
84
82
82
81
80
79
78
77
76
75
75
73
72
71
70
69
68
68
66
66
64
63
63
62
62
58
57
55
54
52
51
50
50
49
48
48
46
46
44
43
41
41
38
37
34
33
31
31
31
31
29
29
28
28
27
27
27
26
26
26
25
22
22
21
20
20
19
18
18
16
15
15
15
14
14
13
9
8
8
8
2
2
2
